Pt 
 1.0000000000000000
     6.0000000000000000    0.0000000000000000    0.0000000000000000
     0.0000000000000000    6.0000000000000000    0.0000000000000000
     0.0000000000000000    0.0000000000000000    6.0000000000000000
   1
Cartesian
  3.0000000000000000  3.0000000000000000  3.0000000000000000
